111111111111111
100000100000001
101110101111111
100010000010001
111011111010101
100000001000101
101111101111101
101000100000101
101110111110111
100010000010001
111010111010101
101010100010101
101110101111101
100000100000001
111111111111111
